/*********************************************
 * OPL 12.6.1.0 Data
 * Author: luigi
 * Creation Date: Oct 11, 2017 at 8:38:47 PM
 *********************************************/
 
I = {"A","B","C"};
Ndest = 3;

D = [7000,6000,4000];
R = [8000,5000,4000];
C = [
	[9,6,5],
	[7,4,9],
	[4,6,3]
];

F = 50;
N = 4;
L = 65;
K = 10000;

